\ENCODING=ISO-8859-1
\Problem name: mockup6

Minimize
 obj1: 0 x(1,1) + x(1,2) + 2 x(1,3) + 2 x(1,4) + 3 x(1,5) + 4 x(1,6) + x(2,1)
       + 0 x(2,2) + x(2,3) + x(2,4) + 2 x(2,5) + 3 x(2,6) + 2 x(3,1) + x(3,2)
       + 0 x(3,3) + 2 x(3,4) + x(3,5) + 2 x(3,6) + 2 x(4,1) + x(4,2) + 2 x(4,3)
       + 0 x(4,4) + x(4,5) + 2 x(4,6) + 3 x(5,1) + 2 x(5,2) + x(5,3) + x(5,4)
       + 0 x(5,5) + x(5,6) + 4 x(6,1) + 3 x(6,2) + 2 x(6,3) + 2 x(6,4) + x(6,5)
       + 0 x(6,6) + 0 u(1) + 0 u(2) + 0 u(3) + 0 u(4) + 0 u(5) + 0 u(6)
Subject To
 degree(1):  x(1,2) + x(1,3) + x(1,4) + x(1,5) + x(1,6)  = 1
 degree(2):  x(2,1) + x(2,3) + x(2,4) + x(2,5) + x(2,6)  = 1
 degree(3):  x(3,1) + x(3,2) + x(3,4) + x(3,5) + x(3,6)  = 1
 degree(4):  x(4,1) + x(4,2) + x(4,3) + x(4,5) + x(4,6)  = 1
 degree(5):  x(5,1) + x(5,2) + x(5,3) + x(5,4) + x(5,6)  = 1
 degree(6):  x(6,1) + x(6,2) + x(6,3) + x(6,4) + x(6,5)  = 1
 degree(7):  x(2,1) + x(3,1) + x(4,1) + x(5,1) + x(6,1)  = 1
 degree(8):  x(1,2) + x(3,2) + x(4,2) + x(5,2) + x(6,2)  = 1
 degree(9):  x(1,3) + x(2,3) + x(4,3) + x(5,3) + x(6,3)  = 1
 degree(10): x(1,4) + x(2,4) + x(3,4) + x(5,4) + x(6,4)  = 1
 degree(11): x(1,5) + x(2,5) + x(3,5) + x(4,5) + x(6,5)  = 1
 degree(12): x(1,6) + x(2,6) + x(3,6) + x(4,6) + x(5,6)  = 1
 indconst(1):  x(2,3) = 1 -> u(2) - u(3) => 1
 indconst(2):  x(2,4) = 1 -> u(2) - u(4) => 1
 indconst(3):  x(2,5) = 1 -> u(2) - u(5) => 1
 indconst(4):  x(2,6) = 1 -> u(2) - u(6) => 1
 indconst(5):  x(3,2) = 1 -> u(3) - u(2) => 1
 indconst(6):  x(3,4) = 1 -> u(3) - u(4) => 1
 indconst(7):  x(3,5) = 1 -> u(3) - u(5) => 1
 indconst(8):  x(3,6) = 1 -> u(3) - u(6) => 1
 indconst(9):  x(4,2) = 1 -> u(4) - u(2) => 1
 indconst(10): x(4,3) = 1 -> u(4) - u(3) => 1
 indconst(11): x(4,5) = 1 -> u(4) - u(5) => 1
 indconst(12): x(4,6) = 1 -> u(4) - u(6) => 1
 indconst(13): x(5,2) = 1 -> u(5) - u(2) => 1
 indconst(14): x(5,3) = 1 -> u(5) - u(3) => 1
 indconst(15): x(5,4) = 1 -> u(5) - u(4) => 1
 indconst(16): x(5,6) = 1 -> u(5) - u(6) => 1
 indconst(17): x(6,2) = 1 -> u(6) - u(2) => 1
 indconst(18): x(6,3) = 1 -> u(6) - u(3) => 1
 indconst(19): x(6,4) = 1 -> u(6) - u(4) => 1
 indconst(20): x(6,5) = 1 -> u(6) - u(5) => 1
Bounds
      x(1,1) = 0
 0 <= x(1,2) <= 1
 0 <= x(1,3) <= 1
 0 <= x(1,4) <= 1
 0 <= x(1,5) <= 1
 0 <= x(1,6) <= 1
 0 <= x(2,1) <= 1
      x(2,2) = 0
 0 <= x(2,3) <= 1
 0 <= x(2,4) <= 1
 0 <= x(2,5) <= 1
 0 <= x(2,6) <= 1
 0 <= x(3,1) <= 1
 0 <= x(3,2) <= 1
      x(3,3) = 0
 0 <= x(3,4) <= 1
 0 <= x(3,5) <= 1
 0 <= x(3,6) <= 1
 0 <= x(4,1) <= 1
 0 <= x(4,2) <= 1
 0 <= x(4,3) <= 1
      x(4,4) = 0
 0 <= x(4,5) <= 1
 0 <= x(4,6) <= 1
 0 <= x(5,1) <= 1
 0 <= x(5,2) <= 1
 0 <= x(5,3) <= 1
 0 <= x(5,4) <= 1
      x(5,5) = 0
 0 <= x(5,6) <= 1
 0 <= x(6,1) <= 1
 0 <= x(6,2) <= 1
 0 <= x(6,3) <= 1
 0 <= x(6,4) <= 1
 0 <= x(6,5) <= 1
      x(6,6) = 0
      u(1) = 0
 0 <= u(2) <= 4
 0 <= u(3) <= 4
 0 <= u(4) <= 4
 0 <= u(5) <= 4
 0 <= u(6) <= 4
Binaries
 x(1,1)  x(1,2)  x(1,3)  x(1,4)  x(1,5)  x(1,6)  x(2,1)  x(2,2)  x(2,3) 
 x(2,4)  x(2,5)  x(2,6)  x(3,1)  x(3,2)  x(3,3)  x(3,4)  x(3,5)  x(3,6) 
 x(4,1)  x(4,2)  x(4,3)  x(4,4)  x(4,5)  x(4,6)  x(5,1)  x(5,2)  x(5,3) 
 x(5,4)  x(5,5)  x(5,6)  x(6,1)  x(6,2)  x(6,3)  x(6,4)  x(6,5)  x(6,6) 
Generals
 u(1)  u(2)  u(3)  u(4)  u(5)  u(6) 
End
